db/data/149742559617512182382473928620160717216.z3.out
sat
-------------------
159.184777461
